c A SAT instance generated from a 3-CNF formula that had 22 clauses and 11 variables
p cnf 11 22
-2 8 -9 0
2 6 -8 0
2 11 -5 0
-8 -7 6 0
5 -7 -3 0
-4 10 8 0
5 2 -1 0
5 11 7 0
1 -4 9 0
6 -1 -9 0
3 4 8 0
-11 5 -4 0
-7 -5 -3 0
7 8 1 0
-4 -3 -9 0
8 9 -7 0
-4 -6 -9 0
10 6 2 0
-7 11 -8 0
-7 1 2 0
-8 11 -7 0
5 3 -11 0
